Route #1: 26 46 20 31 42 7 4
Route #2: 21 33 34 3 37 36
Route #3: 15 11 51 2 17 14
Route #4: 32 38 16 40 53 5 10 12
Route #5: 43 35 9 49 39 47
Route #6: 1 45 6 8
Route #7: 23 52 24 44 50 48 18
Route #8: 29 41 25
Route #9: 28 54 13 27 19 22 30
Cost 1073
Time 0.219679
Tempo = 0.23285369999939576